98 100
48 46 1
78 8 1
46 9 1
49 41 1
22 25 1
33 3 1
75 93 1
68 91 1
7 15 1
8 9 1
17 40 2
66 4 1
4 18 1
46 26 1
20 48 1
94 77 1
13 32 1
45 6 1
34 18 1
49 12 1
34 7 1
6 98 1
11 49 1
76 9 1
16 96 1
29 49 1
49 43 1
44 18 1
10 43 1
13 14 1
48 98 1
34 38 1
15 4 1
9 40 1
10 75 1
90 20 1
32 26 1
77 27 1
82 92 1
49 13 1
11 10 1
36 27 1
17 32 1
25 18 1
1 6 1
16 38 1
13 33 1
11 35 1
53 62 1
9 11 1
71 96 1
10 14 1
67 82 1
13 97 1
41 21 1
20 68 1
43 13 1
29 41 1
22 7 1
41 6 1
30 5 1
7 49 1
65 55 1
25 19 1
29 9 1
46 18 1
20 76 1
20 45 2
39 25 1
47 49 1
91 37 1
27 87 1
11 2 1
72 42 1
14 20 1
45 30 1
97 41 1
34 46 1
4 15 1
25 40 1
41 41 1
19 12 1
5 21 1
17 12 1
48 4 1
18 39 1
17 28 1
26 29 1
43 19 1
35 41 1
98 13 1
47 86 1
29 10 1
73 48 1
39 10 1
30 43 1
27 75 1
100 16 1
100 100 
100 100 
100 100 
100 100 
100 100 
100 100 
100 100 
100 100 
100 100 
100 100 
100 100 
100 100 
100 100 
100 100 
100 100 
100 100 
100 100 
100 100 
100 100 
100 100 
100 100 
100 100 
100 100 
100 100 
100 100 
100 100 
100 100 
100 100 
100 100 
100 100 
100 100 
100 100 
100 100 
100 100 
100 100 
100 100 
100 100 
100 100 
100 100 
100 100 
100 100 
100 100 
100 100 
100 100 
100 100 
100 100 
100 100 
100 100 
100 100 
100 100 
100 100 
100 100 
100 100 
100 100 
100 100 
100 100 
100 100 
100 100 
100 100 
100 100 
100 100 
100 100 
100 100 
100 100 
100 100 
100 100 
100 100 
100 100 
100 100 
100 100 
100 100 
100 100 
100 100 
100 100 
100 100 
100 100 
100 100 
100 100 
100 100 
100 100 
100 100 
100 100 
100 100 
100 100 
100 100 
100 100 
100 100 
100 100 
100 100 
100 100 
100 100 
100 100 
100 100 
100 100 
100 100 
100 100 
100 100 
100 100 
100 100 
100 100 
100 100 
